NAME: kroA100
DIMENSION: 17
EDGE_WEIGHT_TYPE: EUC_2D
NODE_COORD_SECTION
1 1380 939
2 2848 96
3 3510 1671
4 457 334
5 3888 666
6 984 965
7 2721 1482
8 1286 525
9 2716 1432
10 738 1325
11 1251 1832
12 2728 1698
13 3815 169
14 3683 1533
15 1247 1945
16 123 862
17 1234 1946
ACCEPTED_PROBABILITIES
0.0
0.63
0.84
0.41
0.94
0.15
0.54
0.16
0.53
0.28
0.34
0.58
0.95
0.88
0.38
0.47
0.38
OUTSOURCING_COSTS
0.0
132.27
175.94
86.25
197.11
31.02
113.05
33.2
111.25
58.52
70.47
120.86
199.53
185.78
79.3
98.36
79.53
